c turning on binary mode checking
c parsing input formula with 259840 variables and 1039929 clauses
c finished parsing, read 23261685 bytes from proof file
c detected empty clause; start verification via backward checking
c 19643 of 1039929 clauses in core                            
c 22024 of 609485 lemmas in core using 182176 resolution steps
c 0 RAT lemmas in core; 1458 redundant literals in core lemmas
s VERIFIED
c verification time: 3.652 seconds
